!B3LYP D3BJ DEF2-SVP FREQ PAL16
* xyzfile 0 1 Reactant_optimized.xyz
