!B3LYP D3BJ DEF2-SVP OPT PAL16
* xyzfile 0 1 Reactant.xyz
