!wB97M-V DEF2-TZVPD PAL16
* xyzfile 0 1 Reactant_optimized.xyz
